letting grid be [
[ 1, 1, 2,  2, 3, 3,  4, 4, 5],
[ 6, 7, 8,  8, 8, 3,  4, 4, 5],
[ 6, 7, 9, 10,10,11, 11,12,12],

[ 6,13, 9, 10,14,14, 15,16,16],
[13,13, 9, 17,17,14, 18,19,19],
[20,20,21, 17,17,22, 18,19,23],

[24,24,25, 25,22,22, 18,26,23],
[27,27,28, 29,30,30, 30,26,23],
[27,28,28, 29,29,31, 31,32,32]
]

letting hints be [9,7,18,22,14,12,9,14,15,19,4,6,15,20,4,13,16,15,17,14,7,15,10,6,12,17,16,18,12,11,11,11]
